(set-logic QF_NRA)
(set-info :source |Benchmarks generated from hycomp (https://es-static.fbk.eu/tools/hycomp/). BMC instances of non-linear hybrid automata taken from: Alessandro Cimatti, Sergio Mover, Stefano Tonetta, A quantifier-free SMT encoding of non-linear hybrid automata, FMCAD 2012 and Alessandro Cimatti, Sergio Mover, Stefano Tonetta, Quantier-free encoding of invariants for Hybrid Systems, Formal Methods in System Design. This instance solves a BMC problem of depth 1 and uses the quantifier free encoding with equivalences and lemmas encoding. Contacts: Sergio Mover (mover@fbk.eu), Stefano Tonetta (tonettas@fbk.eu), Alessandro Cimatti (cimatti@fbk.eu).|)
(set-info :smt-lib-version 2.0)
(set-info :category "industrial")
(set-info :status unsat)
;; MathSAT API call trace
;; generated on Mon Mar 19 10:46:19 2012
(declare-fun b.event_is_timed__AT0 () Bool)
(declare-fun b.y__AT0 () Real)
(declare-fun b.counter.0__AT0 () Bool)
(declare-fun b.counter.1__AT0 () Bool)
(declare-fun b.EVENT.0__AT0 () Bool)
(declare-fun b.bool_atom__AT0 () Bool)
(declare-fun b.counter.2__AT0 () Bool)
(declare-fun b.speed_y__AT1 () Real)
(declare-fun b.event_is_timed__AT1 () Bool)
(declare-fun b.x__AT0 () Real)
(declare-fun b.time__AT1 () Real)
(declare-fun b.bool_atom__AT1 () Bool)
(declare-fun b.g__AT0 () Real)
(declare-fun b.EVENT.1__AT0 () Bool)
(declare-fun b.time__AT0 () Real)
(declare-fun b.delta__AT0 () Real)
(declare-fun b.counter.3__AT0 () Bool)
(declare-fun b.speed_y__AT0 () Real)
(declare-fun b.y__AT1 () Real)
(declare-fun b.counter.0__AT1 () Bool)
(declare-fun b.counter.1__AT1 () Bool)
(declare-fun b.counter.2__AT1 () Bool)
(declare-fun b.counter.3__AT1 () Bool)
(declare-fun b.delta__AT1 () Real)
(declare-fun b.EVENT.0__AT1 () Bool)
(declare-fun b.x__AT1 () Real)
(declare-fun b.EVENT.1__AT1 () Bool)
(assert (let ((.def_76 (* (- 1.0) b.g__AT0)))
(let ((.def_79 (* (/ 1 2) .def_76)))
(let ((.def_91 (* 2.0 .def_79)))
(let ((.def_311 (* .def_91 b.delta__AT1)))
(let ((.def_312 (+ b.speed_y__AT1 .def_311)))
(let ((.def_329 (<= .def_312 0.0 )))
(let ((.def_330 (not .def_329)))
(let ((.def_327 (<= b.speed_y__AT1 0.0 )))
(let ((.def_350 (or .def_327 .def_330)))
(let ((.def_315 (<= 0.0 b.speed_y__AT1)))
(let ((.def_316 (not .def_315)))
(let ((.def_313 (<= 0.0 .def_312)))
(let ((.def_349 (or .def_313 .def_316)))
(let ((.def_351 (and .def_349 .def_350)))
(let ((.def_131 (<= 0.0 b.g__AT0)))
(let ((.def_352 (or .def_131 .def_351)))
(let ((.def_314 (not .def_313)))
(let ((.def_346 (or .def_314 .def_315)))
(let ((.def_328 (not .def_327)))
(let ((.def_345 (or .def_328 .def_329)))
(let ((.def_347 (and .def_345 .def_346)))
(let ((.def_126 (<= b.g__AT0 0.0 )))
(let ((.def_348 (or .def_126 .def_347)))
(let ((.def_353 (and .def_348 .def_352)))
(let ((.def_342 (and .def_327 .def_329)))
(let ((.def_341 (and .def_313 .def_315)))
(let ((.def_343 (or .def_341 .def_342)))
(let ((.def_302 (* b.speed_y__AT1 b.delta__AT1)))
(let ((.def_300 (* b.delta__AT1 b.delta__AT1)))
(let ((.def_301 (* .def_79 .def_300)))
(let ((.def_303 (+ .def_301 .def_302)))
(let ((.def_281 (* (- 1.0) b.x__AT1)))
(let ((.def_282 (* b.x__AT1 .def_281)))
(let ((.def_304 (* (- 1.0) .def_282)))
(let ((.def_307 (+ .def_304 .def_303)))
(let ((.def_308 (+ b.y__AT1 .def_307)))
(let ((.def_321 (<= .def_308 0.0 )))
(let ((.def_335 (not .def_321)))
(let ((.def_319 (<= b.y__AT1 .def_282)))
(let ((.def_336 (or .def_319 .def_335)))
(let ((.def_283 (<= .def_282 b.y__AT1)))
(let ((.def_333 (not .def_283)))
(let ((.def_309 (<= 0.0 .def_308)))
(let ((.def_334 (or .def_309 .def_333)))
(let ((.def_337 (and .def_334 .def_336)))
(let ((.def_331 (or .def_328 .def_330)))
(let ((.def_332 (not .def_331)))
(let ((.def_338 (or .def_332 .def_337)))
(let ((.def_323 (not .def_309)))
(let ((.def_324 (or .def_283 .def_323)))
(let ((.def_320 (not .def_319)))
(let ((.def_322 (or .def_320 .def_321)))
(let ((.def_325 (and .def_322 .def_324)))
(let ((.def_317 (or .def_314 .def_316)))
(let ((.def_318 (not .def_317)))
(let ((.def_326 (or .def_318 .def_325)))
(let ((.def_339 (and .def_326 .def_338)))
(let ((.def_310 (and .def_283 .def_309)))
(let ((.def_340 (and .def_310 .def_339)))
(let ((.def_344 (and .def_340 .def_343)))
(let ((.def_354 (and .def_344 .def_353)))
(let ((.def_68 (<= b.g__AT0 10.0 )))
(let ((.def_67 (<= 8.0 b.g__AT0)))
(let ((.def_69 (and .def_67 .def_68)))
(let ((.def_355 (and .def_69 .def_354)))
(let ((.def_38 (not b.counter.0__AT0)))
(let ((.def_292 (or b.counter.1__AT0 .def_38)))
(let ((.def_293 (or b.counter.2__AT0 .def_292)))
(let ((.def_41 (not b.counter.2__AT0)))
(let ((.def_36 (not b.counter.1__AT0)))
(let ((.def_39 (and .def_36 .def_38)))
(let ((.def_291 (or .def_39 .def_41)))
(let ((.def_294 (and .def_291 .def_293)))
(let ((.def_295 (or b.counter.3__AT0 .def_294)))
(let ((.def_288 (or .def_39 b.counter.2__AT0)))
(let ((.def_287 (or .def_36 .def_41)))
(let ((.def_289 (and .def_287 .def_288)))
(let ((.def_44 (not b.counter.3__AT0)))
(let ((.def_290 (or .def_44 .def_289)))
(let ((.def_296 (and .def_290 .def_295)))
(let ((.def_284 (and .def_69 .def_283)))
(let ((.def_278 (not b.EVENT.0__AT1)))
(let ((.def_276 (not b.EVENT.1__AT1)))
(let ((.def_279 (or .def_276 .def_278)))
(let ((.def_9 (not b.counter.0__AT1)))
(let ((.def_6 (not b.counter.1__AT1)))
(let ((.def_269 (or .def_6 .def_9)))
(let ((.def_273 (or b.counter.3__AT1 .def_269)))
(let ((.def_270 (or b.counter.2__AT1 .def_269)))
(let ((.def_4 (not b.counter.2__AT1)))
(let ((.def_268 (or .def_4 .def_9)))
(let ((.def_271 (and .def_268 .def_270)))
(let ((.def_14 (not b.counter.3__AT1)))
(let ((.def_272 (or .def_14 .def_271)))
(let ((.def_274 (and .def_272 .def_273)))
(let ((.def_280 (and .def_274 .def_279)))
(let ((.def_285 (and .def_280 .def_284)))
(let ((.def_263 (<= 0.0 b.delta__AT0)))
(let ((.def_57 (not b.EVENT.0__AT0)))
(let ((.def_55 (not b.EVENT.1__AT0)))
(let ((.def_140 (and .def_55 .def_57)))
(let ((.def_142 (not .def_140)))
(let ((.def_264 (or .def_142 .def_263)))
(let ((.def_265 (or b.EVENT.1__AT0 .def_264)))
(let ((.def_178 (= b.bool_atom__AT0 b.bool_atom__AT1)))
(let ((.def_173 (= b.counter.0__AT1 b.counter.0__AT0)))
(let ((.def_171 (= b.counter.1__AT1 b.counter.1__AT0)))
(let ((.def_169 (= b.counter.2__AT1 b.counter.2__AT0)))
(let ((.def_168 (= b.counter.3__AT1 b.counter.3__AT0)))
(let ((.def_170 (and .def_168 .def_169)))
(let ((.def_172 (and .def_170 .def_171)))
(let ((.def_174 (and .def_172 .def_173)))
(let ((.def_259 (and .def_174 .def_178)))
(let ((.def_260 (or .def_142 .def_259)))
(let ((.def_261 (or b.EVENT.1__AT0 .def_260)))
(let ((.def_248 (* b.delta__AT0 .def_76)))
(let ((.def_249 (* (- 1.0) b.speed_y__AT1)))
(let ((.def_252 (+ .def_249 .def_248)))
(let ((.def_253 (+ b.speed_y__AT0 .def_252)))
(let ((.def_254 (= .def_253 0.0 )))
(let ((.def_240 (* (- 1.0) b.y__AT1)))
(let ((.def_82 (* b.delta__AT0 b.speed_y__AT0)))
(let ((.def_243 (+ .def_82 .def_240)))
(let ((.def_75 (* b.delta__AT0 b.delta__AT0)))
(let ((.def_80 (* .def_75 .def_79)))
(let ((.def_244 (+ .def_80 .def_243)))
(let ((.def_245 (+ b.y__AT0 .def_244)))
(let ((.def_246 (= .def_245 0.0 )))
(let ((.def_160 (= b.x__AT0 b.x__AT1)))
(let ((.def_247 (and .def_160 .def_246)))
(let ((.def_255 (and .def_247 .def_254)))
(let ((.def_256 (or .def_142 .def_255)))
(let ((.def_163 (= b.y__AT0 b.y__AT1)))
(let ((.def_235 (and .def_160 .def_163)))
(let ((.def_166 (= b.speed_y__AT0 b.speed_y__AT1)))
(let ((.def_236 (and .def_166 .def_235)))
(let ((.def_232 (= b.delta__AT0 0.0 )))
(let ((.def_233 (and .def_140 .def_232)))
(let ((.def_234 (not .def_233)))
(let ((.def_237 (or .def_234 .def_236)))
(let ((.def_238 (or b.EVENT.1__AT0 .def_237)))
(let ((.def_225 (and .def_166 .def_174)))
(let ((.def_226 (or b.bool_atom__AT0 .def_225)))
(let ((.def_201 (or .def_9 b.counter.0__AT0)))
(let ((.def_200 (or b.counter.0__AT1 .def_38)))
(let ((.def_202 (and .def_200 .def_201)))
(let ((.def_203 (and .def_6 .def_202)))
(let ((.def_204 (or b.counter.1__AT0 .def_203)))
(let ((.def_199 (or b.counter.1__AT1 .def_36)))
(let ((.def_205 (and .def_199 .def_204)))
(let ((.def_216 (and .def_4 .def_205)))
(let ((.def_217 (or b.counter.2__AT0 .def_216)))
(let ((.def_211 (and .def_6 .def_38)))
(let ((.def_212 (or b.counter.1__AT0 .def_211)))
(let ((.def_213 (and .def_199 .def_212)))
(let ((.def_214 (and b.counter.2__AT1 .def_213)))
(let ((.def_215 (or .def_41 .def_214)))
(let ((.def_218 (and .def_215 .def_217)))
(let ((.def_219 (and b.counter.3__AT1 .def_218)))
(let ((.def_220 (or b.counter.3__AT0 .def_219)))
(let ((.def_206 (and b.counter.2__AT1 .def_205)))
(let ((.def_207 (or b.counter.2__AT0 .def_206)))
(let ((.def_195 (or b.counter.1__AT1 b.counter.1__AT0)))
(let ((.def_193 (and .def_6 b.counter.0__AT1)))
(let ((.def_194 (or .def_36 .def_193)))
(let ((.def_196 (and .def_194 .def_195)))
(let ((.def_197 (and .def_4 .def_196)))
(let ((.def_198 (or .def_41 .def_197)))
(let ((.def_208 (and .def_198 .def_207)))
(let ((.def_209 (and .def_14 .def_208)))
(let ((.def_210 (or .def_44 .def_209)))
(let ((.def_221 (and .def_210 .def_220)))
(let ((.def_190 (* b.speed_y__AT0 b.speed_y__AT0)))
(let ((.def_189 (* b.speed_y__AT1 b.speed_y__AT1)))
(let ((.def_191 (= .def_189 .def_190)))
(let ((.def_187 (+ b.speed_y__AT0 b.speed_y__AT1)))
(let ((.def_188 (= .def_187 0.0 )))
(let ((.def_192 (and .def_188 .def_191)))
(let ((.def_222 (and .def_192 .def_221)))
(let ((.def_186 (not b.bool_atom__AT0)))
(let ((.def_223 (or .def_186 .def_222)))
(let ((.def_62 (* (- 1.0) b.x__AT0)))
(let ((.def_63 (* b.x__AT0 .def_62)))
(let ((.def_183 (= b.y__AT0 .def_63)))
(let ((.def_96 (<= 0.0 b.speed_y__AT0)))
(let ((.def_97 (not .def_96)))
(let ((.def_184 (and .def_97 .def_183)))
(let ((.def_185 (= b.bool_atom__AT0 .def_184)))
(let ((.def_224 (and .def_185 .def_223)))
(let ((.def_227 (and .def_224 .def_226)))
(let ((.def_228 (and .def_160 .def_227)))
(let ((.def_229 (and .def_163 .def_228)))
(let ((.def_230 (or .def_140 .def_229)))
(let ((.def_231 (or b.EVENT.1__AT0 .def_230)))
(let ((.def_239 (and .def_231 .def_238)))
(let ((.def_257 (and .def_239 .def_256)))
(let ((.def_147 (= b.time__AT0 b.time__AT1)))
(let ((.def_161 (and .def_147 .def_160)))
(let ((.def_164 (and .def_161 .def_163)))
(let ((.def_167 (and .def_164 .def_166)))
(let ((.def_175 (and .def_167 .def_174)))
(let ((.def_179 (and .def_175 .def_178)))
(let ((.def_180 (or .def_55 .def_179)))
(let ((.def_150 (* (- 1.0) b.time__AT1)))
(let ((.def_153 (+ b.delta__AT0 .def_150)))
(let ((.def_154 (+ b.time__AT0 .def_153)))
(let ((.def_155 (= .def_154 0.0 )))
(let ((.def_156 (or .def_142 .def_155)))
(let ((.def_157 (or b.EVENT.1__AT0 .def_156)))
(let ((.def_148 (or .def_140 .def_147)))
(let ((.def_149 (or b.EVENT.1__AT0 .def_148)))
(let ((.def_158 (and .def_149 .def_157)))
(let ((.def_181 (and .def_158 .def_180)))
(let ((.def_144 (= .def_142 b.event_is_timed__AT1)))
(let ((.def_141 (= b.event_is_timed__AT0 .def_140)))
(let ((.def_145 (and .def_141 .def_144)))
(let ((.def_182 (and .def_145 .def_181)))
(let ((.def_258 (and .def_182 .def_257)))
(let ((.def_262 (and .def_258 .def_261)))
(let ((.def_266 (and .def_262 .def_265)))
(let ((.def_267 (and .def_55 .def_266)))
(let ((.def_286 (and .def_267 .def_285)))
(let ((.def_297 (and .def_286 .def_296)))
(let ((.def_92 (* b.delta__AT0 .def_91)))
(let ((.def_93 (+ b.speed_y__AT0 .def_92)))
(let ((.def_110 (<= .def_93 0.0 )))
(let ((.def_111 (not .def_110)))
(let ((.def_108 (<= b.speed_y__AT0 0.0 )))
(let ((.def_133 (or .def_108 .def_111)))
(let ((.def_94 (<= 0.0 .def_93)))
(let ((.def_132 (or .def_94 .def_97)))
(let ((.def_134 (and .def_132 .def_133)))
(let ((.def_135 (or .def_131 .def_134)))
(let ((.def_95 (not .def_94)))
(let ((.def_128 (or .def_95 .def_96)))
(let ((.def_109 (not .def_108)))
(let ((.def_127 (or .def_109 .def_110)))
(let ((.def_129 (and .def_127 .def_128)))
(let ((.def_130 (or .def_126 .def_129)))
(let ((.def_136 (and .def_130 .def_135)))
(let ((.def_123 (and .def_108 .def_110)))
(let ((.def_122 (and .def_94 .def_96)))
(let ((.def_124 (or .def_122 .def_123)))
(let ((.def_83 (+ .def_80 .def_82)))
(let ((.def_84 (* (- 1.0) .def_63)))
(let ((.def_87 (+ .def_84 .def_83)))
(let ((.def_88 (+ b.y__AT0 .def_87)))
(let ((.def_102 (<= .def_88 0.0 )))
(let ((.def_116 (not .def_102)))
(let ((.def_100 (<= b.y__AT0 .def_63)))
(let ((.def_117 (or .def_100 .def_116)))
(let ((.def_64 (<= .def_63 b.y__AT0)))
(let ((.def_114 (not .def_64)))
(let ((.def_89 (<= 0.0 .def_88)))
(let ((.def_115 (or .def_89 .def_114)))
(let ((.def_118 (and .def_115 .def_117)))
(let ((.def_112 (or .def_109 .def_111)))
(let ((.def_113 (not .def_112)))
(let ((.def_119 (or .def_113 .def_118)))
(let ((.def_104 (not .def_89)))
(let ((.def_105 (or .def_64 .def_104)))
(let ((.def_101 (not .def_100)))
(let ((.def_103 (or .def_101 .def_102)))
(let ((.def_106 (and .def_103 .def_105)))
(let ((.def_98 (or .def_95 .def_97)))
(let ((.def_99 (not .def_98)))
(let ((.def_107 (or .def_99 .def_106)))
(let ((.def_120 (and .def_107 .def_119)))
(let ((.def_90 (and .def_64 .def_89)))
(let ((.def_121 (and .def_90 .def_120)))
(let ((.def_125 (and .def_121 .def_124)))
(let ((.def_137 (and .def_125 .def_136)))
(let ((.def_138 (and .def_69 .def_137)))
(let ((.def_70 (and .def_64 .def_69)))
(let ((.def_58 (or .def_55 .def_57)))
(let ((.def_48 (or .def_36 .def_38)))
(let ((.def_52 (or b.counter.3__AT0 .def_48)))
(let ((.def_49 (or b.counter.2__AT0 .def_48)))
(let ((.def_47 (or .def_38 .def_41)))
(let ((.def_50 (and .def_47 .def_49)))
(let ((.def_51 (or .def_44 .def_50)))
(let ((.def_53 (and .def_51 .def_52)))
(let ((.def_59 (and .def_53 .def_58)))
(let ((.def_71 (and .def_59 .def_70)))
(let ((.def_42 (and .def_39 .def_41)))
(let ((.def_45 (and .def_42 .def_44)))
(let ((.def_33 (= b.y__AT0 10.0 )))
(let ((.def_29 (= b.x__AT0 0.0 )))
(let ((.def_25 (= b.time__AT0 0.0 )))
(let ((.def_27 (and .def_25 b.event_is_timed__AT0)))
(let ((.def_30 (and .def_27 .def_29)))
(let ((.def_34 (and .def_30 .def_33)))
(let ((.def_46 (and .def_34 .def_45)))
(let ((.def_72 (and .def_46 .def_71)))
(let ((.def_17 (or b.counter.1__AT1 .def_9)))
(let ((.def_18 (or b.counter.2__AT1 .def_17)))
(let ((.def_10 (and .def_6 .def_9)))
(let ((.def_16 (or .def_4 .def_10)))
(let ((.def_19 (and .def_16 .def_18)))
(let ((.def_20 (or b.counter.3__AT1 .def_19)))
(let ((.def_11 (or b.counter.2__AT1 .def_10)))
(let ((.def_7 (or .def_4 .def_6)))
(let ((.def_12 (and .def_7 .def_11)))
(let ((.def_15 (or .def_12 .def_14)))
(let ((.def_21 (and .def_15 .def_20)))
(let ((.def_22 (not .def_21)))
(let ((.def_73 (and .def_22 .def_72)))
(let ((.def_139 (and .def_73 .def_138)))
(let ((.def_298 (and .def_139 .def_297)))
(let ((.def_356 (and .def_298 .def_355)))
.def_356)))))))))))))))))))))))))))))))))))))))))))))))))))))))))))))))))))))))))))))))))))))))))))))))))))))))))))))))))))))))))))))))))))))))))))))))))))))))))))))))))))))))))))))))))))))))))))))))))))))))))))))))))))))))))))))))))))))))))))))))))))))))))))))))))))))))))))))))))))))))))))))))))))))))))))))))))))))))
(check-sat)
(exit)
